5 19 15574
19 49 8895
49 23 4353
23 60 7498
60 29 6419
29 25 9940
25 30 1249
30 41 5056
41 6 10602
6 11 47990
11 66 13370
66 26 57991
26 55 61621
55 46 30985
46 34 36286
34 64 57563
64 67 14572
67 38 15200
38 7 28523
7 43 52950
43 22 102153
22 31 39447
31 14 70585
14 52 39276
52 33 101509
33 57 88918
57 18 27906
18 10 28652
10 44 75759
44 53 84806
53 37 6554
37 62 30446
62 39 8740
39 51 11004
51 35 8926
35 68 19070
68 9 41649
9 58 1777
58 15 6904
15 8 6874
8 36 11459
36 50 24707
50 28 10810
28 59 24825
59 16 10880
16 63 14689
63 2 25131
2 17 16612
17 27 1445
27 45 8214
45 65 16726
65 48 17626
48 4 7248
4 20 4440
20 47 12843
47 13 9114
13 54 13536
54 1 18207
1 24 15310
24 61 5437
61 21 26988
21 3 17216
3 42 13084
42 12 4831
12 32 4813
32 56 1427
56 40 3489
40 5 3130
